#######################################
### Exact MIP solver for the HHCRSP ###
#######################################
-- Instance file: new-instances/HHCRSP_300_60_36_0.8_C_C.txt
-- Max threads: 4
-- Time limit: 999999 seconds
-- Use initial solution: No
Trivial flow violations prevented generating 1149324 variables.
Version identifier: 20.1.0.0 | 2020-11-10 | 9bedb6d68
CPXPARAM_Threads                                 4
CPXPARAM_TimeLimit                               999999
Parallel mode: deterministic, using up to 4 threads for concurrent optimization:
 * Starting dual Simplex on 1 thread...
 * Starting Barrier on 3 threads...
Tried aggregator 1 time.
LP Presolve eliminated 43524 rows and 9181 columns.
Reduced LP has 1121104 rows, 1066365 columns, and 24375768 nonzeros.
Presolve time = 32.33 sec. (5387.93 ticks)
Symmetry aggregator did 1771400 additional substitutions.
Initializing dual steep norms . . .

Iteration log . . .
Iteration:     1   Dual objective     =             0.333333
Iteration:  1402   Dual objective     =           307.083333

Dual crossover.
  Dual:  Fixing 1570 variables.
     1569 DMoves:  Infeasibility  1.69453340e-12  Objective  3.08333333e+02
        0 DMoves:  Infeasibility  8.34474157e-13  Objective  3.08333333e+02
  Dual:  Pushed 54, exchanged 1516.
  Primal:  Fixing 1029 variables.
     1028 PMoves:  Infeasibility  0.00000000e+00  Objective  3.08333333e+02
        0 PMoves:  Infeasibility  0.00000000e+00  Objective  3.08333333e+02
  Primal:  Pushed 885, exchanged 144.

Dual simplex solved model.


Solution status from MIP model:
-- Processing time: 52.38 sec.
-- Memory used: 1004.86 MB
-- Best bound: inf
-- Obj value: 308.333
-- Gap: inf%
-- Total distance: 925
-- Total tardiness: 0
-- Largest tardiness: 0
